3 13 11 4 2 9 10 6 12 7 5 14 8 1 0
13 9 14 0 4 5 6 11 1 7 8 12 10 3 2
1 14 13 8 10 4 0 12 5 2 11 6 9 7 3
14 5 4 3 10 7 1 11 13 6 9 12 2 8 0
14 1 13 6 12 4 5 2 9 0 3 7 11 8 10
9 11 14 10 13 7 8 2 1 0 12 5 4 6 3
3 7 11 8 4 9 1 12 10 6 0 14 5 2 13
14 13 5 0 9 8 2 3 1 11 6 10 4 7 12
3 2 0 11 1 4 5 13 7 12 9 10 8 6 14
14 9 11 13 1 5 3 4 0 12 6 2 8 10 7
14 12 2 5 4 1 13 0 8 10 7 11 3 6 9
4 13 3 1 11 8 9 7 0 2 6 10 5 12 14
11 9 1 8 12 14 2 10 7 0 13 6 3 5 4
1 4 5 6 11 3 9 10 8 2 7 13 14 12 0
13 2 4 12 7 3 8 0 11 14 9 6 1 5 10